11
1 9
2 2
3 9
4 3
5 9
6 8
7 4
8 5
9 6
10 9
27
0 1 96
1 0 96
0 2 86
2 0 86
0 3 69
3 0 69
0 4 48
4 0 48
0 5 86
5 0 86
0 6 29
6 0 29
0 7 82
7 0 82
0 8 95
8 0 95
0 9 25
9 0 25
0 10 9
10 0 9
1 5 37
1 7 8
2 5 16
2 7 82
2 9 66
5 10 30
7 8 13
